10	5
0	5	2	3	1	6	4
1	1	9
2	1	9
3	2	9	8
4	1	9
5	1	7
6	1	8
7	1	11
8	1	5
9	1	11
10	1	11
11	0
0	0	0	0	0	0	0
1	4	4	2	4	0	0
2	7	1	5	0	0	5
3	2	0	5	0	0	2
4	8	3	0	0	0	2
5	9	5	2	3	0	2
6	5	3	0	0	0	0
7	6	0	1	4	4	0
8	7	0	5	1	0	5
9	9	0	2	4	0	0
10	8	0	3	0	0	2
11	0	0	0	0	0	0
6	6	5	5	6
